DATASET = "thpack2";
INSTANCE = "075";

WIDTH = 233;
HEIGHT = 220;
LENGTH = 587;

NO_OF_SHAPES = 5;
size = [|
  101,81,24 |
  94,72,29 |
  79,72,47 |
  90,36,35 |
  68,51,40 |
|];

verticality = [|
  0,0,1 |
  0,0,1 |
  1,1,1 |
  0,1,1 |
  1,1,1 |
|];

box_count = [
  35,
  37,
  31,
  31,
  29,
];
